computational_data/real_data/solutions/iris_trial_000_lex.sol
Optimal - objective value 3.93333400
      0 r_0                         0                       1
      1 r_1                         0                0.966667
      2 r_2                         0                0.966667
      3 r_3                         1                0.966667
      4 r_4                         0                0.966667
      5 r_5                         0                0.966667
      6 r_6                         0                0.966667
      7 r_7                         0                0.966667
      8 r_8                         0                       1
      9 r_9                         0                       1
     10 r_10                        0                0.966667
     11 r_11                        0                       1
     12 r_12                        0                       1
     13 r_13                        0                       1
     14 r_14                        0                       1
     15 r_15                        0                       1
     16 r_16                        1                       1
     17 b_0                         0                       1
     18 b_1                         0                0.966667
     19 b_2                         0                0.966667
     20 b_3                         0                0.966667
     21 b_4                         1                0.966667
     22 b_5                         0                0.966667
     23 b_6                         0                0.966667
     24 b_7                         0                0.966667
     25 b_8                         1                       1
     26 b_9                         0                       1
     27 b_10                        0                0.966667
     28 b_11                        0                       1
     29 b_12                        0                       1
     30 b_13                        0                       1
     31 b_14                        0                       1
     32 b_15                        0                       1
     33 b_16                        0                       1
